c User generated cnf file
p cnf 9 45
1 -8 1 0 
3 4 -8 0 
2 -9 3 0 
5 -9 9 0 
8 5 -1 0 
8 -1 9 0 
9 6 -4 0 
2 -7 4 0 
6 9 -6 0 
8 -1 1 0 
5 -8 7 0 
4 -6 8 0 
5 3 -6 0 
6 -2 5 0 
1 -7 2 0 
4 -7 2 0 
6 -3 3 0 
5 -2 1 0 
8 4 -1 0 
7 -2 5 0 
7 -7 7 0 
2 -9 8 0 
6 7 -7 0 
7 -1 9 0 
3 -2 8 0 
6 4 -1 0 
2 5 -2 0 
3 -2 7 0 
9 -4 7 0 
3 -2 5 0 
6 5 -5 0 
6 3 -8 0 
7 -2 6 0 
9 -5 3 0 
8 2 -2 0 
7 -4 9 0 
3 -4 3 0 
1 -6 4 0 
3 6 -2 0 
9 -9 4 0 
9 -2 3 0 
5 -6 4 0 
9 -2 4 0 
3 3 -1 0 
9 8 -7 0 
